p cnf 20 20
1 13 10 0
20 -10 13 0
-17 -8 6 0
-5 -11 6 0
3 19 6 0
11 -17 7 0
13 18 -8 0
2 5 16 0
-18 -17 13 0
-4 20 5 0
15 -4 -12 0
5 20 -16 0
-13 12 8 0
5 -19 -10 0
2 -17 -6 0
-17 -6 7 0
14 12 -15 0
-17 -10 4 0
-19 -1 3 0
19 17 16 0
